--- Job with_locational_instrument.gms Start 01/13/22 19:05:23 30.3.0 rc5da09e WEX-WEI x86 64bit/MS Windows
--- GAMS Parameters defined
    Input C:\Users\a.eicke\Documents\Locational-investment-signals\Two node models\with_locational_instrument.gms
    PageSize 0
    ScrDir C:\Users\a.eicke\Documents\Locational-investment-signals\Two node models\225b\
    SysDir C:\GAMS\win64\30.3\
    LogOption 3
    ErrMsg 1
    ErrorLog 99
    IDE 1
    LstTitleLeftAligned 1
GAMS 30.3.0   Copyright (C) 1987-2020 GAMS Development. All rights reserved
Licensee: Small MUD - 5 User License                     S190305:0326AO-WIN
          Hertie School of Governance GmbH, Governance of DigitalizaDC14808
--- Starting compilation
--- with_locational_instrument.gms(70) 3 Mb
--- GDXin=C:\Users\a.eicke\Documents\Locational-investment-signals\Two node models\in.gdx
--- with_locational_instrument.gms(290) 3 Mb
--- Starting execution: elapsed 0:00:00.016
--- with_locational_instrument.gms(257) 4 Mb
--- Generating MIQCP model LOCI
--- with_locational_instrument.gms(260) 6 Mb
---   1,151 rows  881 columns  3,191 non-zeroes
---   202 nl-code  32 nl-non-zeroes
---   232 discrete-columns
--- with_locational_instrument.gms(260) 4 Mb
--- Executing CPLEX: elapsed 0:00:00.047

IBM ILOG CPLEX   30.3.0 rc5da09e Released Mar 06, 2020 WEI x86 64bit/MS Window
--- GAMS/Cplex licensed for continuous and discrete problems.
Cplex 12.10.0.0

The search will stop after 65000000 nodes.
Reading data...
Starting Cplex...
Space for names approximately 0.06 Mb
Use option 'names no' to turn use of names off
Version identifier: 12.10.0.0 | 2019-11-26 | 843d4de2ae
CPXPARAM_Advance                                 0
CPXPARAM_Threads                                 1
CPXPARAM_Parallel                                1
CPXPARAM_MIP_Display                             4
CPXPARAM_Simplex_Limits_Iterations               2000000000
CPXPARAM_MIP_Limits_Nodes                        65000000
CPXPARAM_TimeLimit                               150000
CPXPARAM_Tune_TimeLimit                          30000
CPXPARAM_MIP_Tolerances_AbsMIPGap                0
CPXPARAM_MIP_Tolerances_MIPGap                   0.00050000000000000001
CPXPARAM_WorkDir                                 "C:\Users\a.eicke\Documents\Locational-investment-signals\Two node models\225b\"
Tried aggregator 2 times.
MIQP Presolve eliminated 395 rows and 123 columns.
MIQP Presolve modified 307 coefficients.
Aggregator did 37 substitutions.
Reduced MIQP has 719 rows, 716 columns, and 2207 nonzeros.
Reduced MIQP has 198 binaries, 0 generals, 0 SOSs, and 0 indicators.
Reduced MIQP objective Q matrix has 32 nonzeros.
Presolve time = 0.02 sec. (2.05 ticks)
Probing fixed 12 vars, tightened 59 bounds.
Probing time = 0.00 sec. (0.76 ticks)
Tried aggregator 1 time.
MIQP Presolve eliminated 24 rows and 12 columns.
MIQP Presolve modified 18 coefficients.
Reduced MIQP has 695 rows, 704 columns, and 2086 nonzeros.
Reduced MIQP has 186 binaries, 0 generals, 0 SOSs, and 0 indicators.
Reduced MIQP objective Q matrix has 32 nonzeros.
Presolve time = 0.00 sec. (0.88 ticks)
Classifier predicts products in MIQP should be linearized.
Probing fixed 10 vars, tightened 418 bounds.
Probing time = 0.00 sec. (1.25 ticks)
Clique table members: 154.
MIP emphasis: balance optimality and feasibility.
MIP search method: dynamic search.
Parallel mode: none, using 1 thread.
Tried aggregator 1 time.
QP Presolve eliminated 106 rows and 106 columns.
Aggregator did 128 substitutions.
Reduced QP has 461 rows, 470 columns, and 1548 nonzeros.
Reduced QP objective Q matrix has 32 nonzeros.
Presolve time = 0.00 sec. (0.57 ticks)
Parallel mode: none, using 1 thread for barrier

***NOTE: Found 6 dense columns.

Number of nonzeros in lower triangle of A*A' = 2162
Using Approximate Minimum Degree ordering
Total time for automatic ordering = 0.00 sec. (0.21 ticks)
Summary statistics for Cholesky factor:
  Rows in Factor            = 467
  Integer space required    = 1299
  Total non-zeros in factor = 6434
  Total FP ops to factor    = 132286
 Itn      Primal Obj        Dual Obj  Prim Inf Upper Inf  Dual Inf          
   0  -1.4573589e+06   9.2844345e+07  8.48e+04  6.62e+04  3.41e+04
   1  -6.5348502e+05   5.8983114e+07  5.31e+04  4.14e+04  2.13e+04
   2  -2.8492233e+05   3.5580500e+07  3.12e+04  2.48e+04  1.26e+04
   3  -8.3580567e+03   9.4983199e+06  7.64e+03  6.08e+03  3.08e+03
   4   5.6466475e+04   2.0021432e+06  1.36e+03  1.08e+03  5.48e+02
   5   8.5178551e+04   3.5611032e+05  1.58e+02  1.25e+02  6.36e+01
   6   9.1325679e+04   2.5235191e+05  7.72e+01  6.13e+01  3.11e+01
   7   1.0015761e+05   1.5085193e+05  2.19e+01  1.73e+01  8.78e+00
   8   1.0282958e+05   1.2505799e+05  8.40e+00  6.66e+00  3.37e+00
   9   1.0335570e+05   1.1257475e+05  1.24e+00  9.84e-01  4.98e-01
  10   1.0457480e+05   1.0601277e+05  1.76e-01  1.39e-01  7.05e-02
  11   1.0473149e+05   1.0504213e+05  2.03e-02  1.61e-02  8.13e-03
  12   1.0477023e+05   1.0480962e+05  2.52e-03  2.00e-03  1.01e-03
  13   1.0477520e+05   1.0477793e+05  1.71e-04  1.35e-04  6.84e-05
  14   1.0477550e+05   1.0477601e+05  3.20e-05  2.53e-05  1.28e-05
  15   1.0477557e+05   1.0477557e+05  3.89e-07  2.91e-07  1.47e-07
  16   1.0477557e+05   1.0477557e+05  6.67e-07  2.29e-09  9.94e-10
  17   1.0477557e+05   1.0477557e+05  2.42e-06  3.17e-10  1.16e-11
Barrier time = 0.02 sec. (6.98 ticks)

QP crossover.
  Primal and Dual:  Fixing 252 variables.
  Primal:  Pushed 136, exchanged 85.
  Dual  :  Pushed 15, exchanged 67.

Iteration log . . .
Iteration:     1    Objective     =        104775.567996
Removing shift (1).
Total crossover time = 0.01 sec. (5.64 ticks)

Total time on 1 threads = 0.03 sec. (13.24 ticks)
Root relaxation solution time = 0.03 sec. (13.25 ticks)

        Nodes                                         Cuts/
   Node  Left     Objective  IInf  Best Integer    Best Bound    ItCnt     Gap

      0     0   104775.5680   127                 104775.5680       19         
      0     0   104775.5680   127                   Cuts: 273      639         
      0     0   104775.5680   127                   Cuts: 273      959         
      0     0   104775.5680   127                    Cuts: 91     1106         
      0     0   104775.5680   127                    Cuts: 52     1178         
      0     0   104775.5680   127                    Cuts: 14     1190         
      0     2   104775.5680    51                 104775.5680     1190         
Elapsed time = 0.59 sec. (330.97 ticks, tree = 0.01 MB, solutions = 0)
     40    40   101926.3322    58                 104775.5680     5022         
    120   106    infeasible                       104775.5680     9277         
                                                 Impl Bds: 28                  
    162   134   102970.2302    17                 104775.5680    14704         
                                                     Cuts: 22                  
    256   206   102982.4117    24                 104775.5680    19165         
                                                 Impl Bds: 14                  
    326   258    infeasible                       104775.5680    22370         
                                                      Cuts: 2                  
    371   291   102735.2100    22                 104775.5680    27547         
                                                  Impl Bds: 9                  
    444   350   101889.1797    28                 104775.5680    32526         
                                                  Impl Bds: 1                  
    522   414    infeasible                       104775.5680    36638         
                                                  Impl Bds: 1                  
    577   453   102345.4078    14                 104775.5680    40495         
                                                  Impl Bds: 3                  
*   698   272      integral     0   102731.7756   104775.5680    46510    1.99%
                                                  Impl Bds: 8                  
Found incumbent of value 102731.775625 after 5.00 sec. (2802.54 ticks)
    911   395   103892.6726    41   102731.7756   104757.0657    60417    1.97%
                                                     Cuts: 31                  
Elapsed time = 6.16 sec. (3457.02 ticks, tree = 0.22 MB, solutions = 1)

Performing restart 1

Repeating presolve.
Tried aggregator 2 times.
MIQP Presolve eliminated 18 rows and 18 columns.
MIQP Presolve modified 248 coefficients.
Aggregator did 8 substitutions.
Reduced MIQP has 669 rows, 678 columns, and 1996 nonzeros.
Reduced MIQP has 176 binaries, 0 generals, 0 SOSs, and 0 indicators.
Reduced MIQP objective Q matrix has 32 nonzeros.
Presolve time = 0.00 sec. (1.50 ticks)
Tried aggregator 1 time.
MIQP Presolve eliminated 28 rows and 28 columns.
MIQP Presolve modified 106 coefficients.
Reduced MIQP has 641 rows, 650 columns, and 1916 nonzeros.
Reduced MIQP has 152 binaries, 0 generals, 0 SOSs, and 0 indicators.
Reduced MIQP objective Q matrix has 32 nonzeros.
Presolve time = 0.00 sec. (1.10 ticks)
Tried aggregator 1 time.
MIQP Presolve modified 148 coefficients.
Reduced MIQP has 641 rows, 650 columns, and 1916 nonzeros.
Reduced MIQP has 152 binaries, 0 generals, 0 SOSs, and 0 indicators.
Reduced MIQP objective Q matrix has 32 nonzeros.
Presolve time = 0.00 sec. (0.81 ticks)
Represolve time = 0.03 sec. (8.38 ticks)
Tried aggregator 1 time.
QP Presolve eliminated 49 rows and 0 columns.
Aggregator did 108 substitutions.
Reduced QP has 779 rows, 542 columns, and 2430 nonzeros.
Reduced QP objective Q matrix has 32 nonzeros.
Presolve time = 0.00 sec. (0.66 ticks)
Parallel mode: none, using 1 thread for barrier

***NOTE: Found 4 dense columns.

Number of nonzeros in lower triangle of A*A' = 6228
Using Approximate Minimum Degree ordering
Total time for automatic
Total time for automatic ordering = 0.02 sec. (0.47 ticks)
Summary statistics for Cholesky factor:
  Rows in Factor            = 783
  Integer space required    = 3131
  Total non-zeros in factor = 19790
  Total FP ops to factor    = 739686
 Itn      Primal Obj        Dual Obj  Prim Inf Upper Inf  Dual Inf          
   0  -2.5470734e+09   2.5701509e+09  1.39e+05  7.41e+04  4.26e+07
   1  -6.1495778e+08   6.2745118e+08  6.85e+04  3.65e+04  2.10e+07
   2  -3.5127152e+07   3.9230402e+07  1.66e+04  8.85e+03  5.09e+06
   3  -3.9418563e+06   6.0280483e+06  5.70e+03  3.04e+03  1.75e+06
   4  -2.0272042e+04   7.7687567e+05  8.91e+02  4.75e+02  2.73e+05
   5   6.6592429e+04   4.2786915e+05  3.60e+02  1.92e+02  1.10e+05
   6   8.2405952e+04   3.3210562e+05  1.97e+02  1.05e+02  6.05e+04
   7   9.7565937e+04   1.7412564e+05  4.63e+01  2.47e+01  1.42e+04
   8   1.0112155e+05   1.3200078e+05  1.16e+01  6.20e+00  3.57e+03
   9   1.0327264e+05   1.1512037e+05  3.91e+00  2.08e+00  1.20e+03
  10   1.0388679e+05   1.1037456e+05  1.33e+00  7.10e-01  4.09e+02
  11   1.0438262e+05   1.0743089e+05  4.78e-01  2.55e-01  1.47e+02
  12   1.0461666e+05   1.0566386e+05  4.18e-03  2.23e-03  1.28e+00
  13   1.0472150e+05   1.0511036e+05  1.55e-03  8.23e-04  4.74e-01
  14   1.0476795e+05   1.0482897e+05  2.34e-04  1.24e-04  7.16e-02
  15   1.0477502e+05   1.0478005e+05  1.80e-05  9.60e-06  5.52e-03
  16   1.0477556e+05   1.0477564e+05  2.84e-07  1.43e-07  8.24e-05
  17   1.0477557e+05   1.0477557e+05  1.09e-07  1.17e-09  6.72e-07
  18   1.0477557e+05   1.0477557e+05  1.61e-06  1.44e-11  5.70e-09
Barrier time = 0.05 sec. (16.84 ticks)

QP crossover.
  Primal and Dual:  Fixing 277 variables.
  Primal:  Pushed 120, exchanged 130.
  Dual  :  Pushed 19, exchanged 112.

Iteration log . . .
Iteration:     1    Objective     =        104775.567996
Total crossover time = 0.02 sec. (8.92 ticks)

Total time on 1 threads = 0.06 sec. (26.48 ticks)
   1016     0   104775.5680    63   102731.7756     Cuts: 187    65887    1.96%
   1016     0   104775.5680    63   102731.7756     Cuts: 115    65945    1.96%
   1016     0   104775.5680    63   102731.7756      Cuts: 60    66001    1.96%
   1016     0   104775.5680    63   102731.7756      Cuts: 26    66019    1.96%
   1016     0   104775.5680    63   102731.7756       Cuts: 7    66033    1.96%
   1046    13   104775.5680    47   102731.7756   104743.4393    66912    1.96%
*  1116+   63                       102963.6163   104743.4393             1.73%
Found incumbent of value 102963.616283 after 8.20 sec. (4689.37 ticks)
*  1132    57      integral     0   103203.4359   104743.4393    69101    1.49%
Found incumbent of value 103203.435852 after 8.28 sec. (4745.83 ticks)
   1326   174   104706.4882    31   103203.4359   104743.4393    73362    1.49%
   1649   351   103747.3503    26   103203.4359   104743.4393    83273    1.49%
                                                      Cuts: 4                  
   2016   566   104238.6566    37   103203.4359   104743.4393    93125    1.49%
   2326   673   104765.2784    34   103203.4359   104743.4393   107038    1.49%
   2789   901        cutoff         103203.4359   104743.4393   120345    1.49%
   3225  1052   103216.9486    14   103203.4359   104743.4393   134974    1.49%
   3553  1170   104548.5549    47   103203.4359   104743.4393   146777    1.49%
   3923  1295   104377.3572    47   103203.4359   104743.4393   160089    1.49%
   4223  1345   103869.0087    40   103203.4359   104731.8229   175115    1.48%
Elapsed time = 22.77 sec. (13055.06 ticks, tree = 0.63 MB, solutions = 3)
   4590  1459   104700.0050    42   103203.4359   104713.0732   187711    1.46%
   4903  1483   103545.7000    37   103203.4359   104697.5052   206081    1.45%
   5313  1673   104665.1439    57   103203.4359   104697.3371   218807    1.45%
   5597  1701   104539.2509    27   103203.4359   104681.3188   233694    1.43%
   5919  1735   103272.7916    37   103203.4359   104669.9070   249316    1.42%
   6255  1806   104587.7191    42   103203.4359   104660.6425   262686    1.41%
   6607  1833        cutoff         103203.4359   104644.9383   277484    1.40%
   6955  1849   104613.5819    34   103203.4359   104621.6723   295277    1.37%
   7286  1844   103315.6548    38   103203.4359   104594.5550   310866    1.35%
                                                      Cuts: 3                  
   7611  1903        cutoff         103203.4359   104582.9323   330130    1.34%
Elapsed time = 39.53 sec. (22627.99 ticks, tree = 0.85 MB, solutions = 3)
   7849  1868   104481.2794    49   103203.4359   104557.1048   349720    1.31%
                                                     Cuts: 11                  
   8157  1891   103744.6286    42   103203.4359   104535.0672   366265    1.29%
                                                  Impl Bds: 6                  
   8472  1892        cutoff         103203.4359   104511.6029   382091    1.27%
   8745  1887   103306.3426    40   103203.4359   104493.6710   402099    1.25%
   9050  1889   103244.1000    39   103203.4359   104454.8661   420194    1.21%
   9387  1913   103296.0981    40   103203.4359   104427.8635   435701    1.19%
   9677  1890        cutoff         103203.4359   104393.0126   450858    1.15%
   9996  1863   103916.9584    44   103203.4359   104359.8194   467275    1.12%
  10366  1852   103221.3279    32   103203.4359   104311.8583   485961    1.07%
  10712  1833        cutoff         103203.4359   104268.3158   504285    1.03%
Elapsed time = 57.05 sec. (32200.58 ticks, tree = 0.83 MB, solutions = 3)
  11032  1838        cutoff         103203.4359   104238.6566   522838    1.00%
  11176  1837   103891.2056    48   103203.4359   104225.2215   531602    0.99%
  11447  1784        cutoff         103203.4359   104180.0043   550010    0.95%
  11754  1712   103223.7377    25   103203.4359   104128.9963   568884    0.90%
  12059  1650   103894.2484    38   103203.4359   104071.1061   587459    0.84%
  12346  1620   103905.0856    44   103203.4359   104022.6356   604946    0.79%
  12644  1596   103421.0402    37   103203.4359   103969.6589   623832    0.74%
  12992  1514        cutoff         103203.4359   103891.2164   641168    0.67%
  13384  1455        cutoff         103203.4359   103795.7606   656944    0.57%
  13781  1335   103688.2180    49   103203.4359   103688.2180   673463    0.47%
Elapsed time = 79.13 sec. (44254.45 ticks, tree = 0.63 MB, solutions = 3)
  14270  1190        cutoff         103203.4359   103575.1260   689020    0.36%
  14804   982        cutoff         103203.4359   103459.5614   702055    0.25%
  15377   808   103266.9403    42   103203.4359   103365.0150   714070    0.16%
  16003   657        cutoff         103203.4359   103290.4684   724902    0.08%

Cover cuts applied:  2
Implied bound cuts applied:  54
Flow cuts applied:  32
Mixed integer rounding cuts applied:  32
Gomory fractional cuts applied:  3

Root node processing (before b&c):
  Real time             =    0.59 sec. (330.97 ticks)
Sequential b&c:
  Real time             =   86.38 sec. (48284.26 ticks)
                          ------------
Total (root+branch&cut) =   86.97 sec. (48615.23 ticks)
MIQP status(102): integer optimal, tolerance
Cplex Time: 86.97sec (det. 48615.23 ticks)
Fixing integer variables, and solving final QP..
Version identifier: 12.10.0.0 | 2019-11-26 | 843d4de2ae
CPXPARAM_Advance                                 2
CPXPARAM_Threads                                 1
CPXPARAM_Parallel                                1
CPXPARAM_MIP_Display                             4
CPXPARAM_Simplex_Limits_Iterations               2000000000
CPXPARAM_MIP_Limits_Nodes                        65000000
CPXPARAM_TimeLimit                               150000
CPXPARAM_Tune_TimeLimit                          30000
CPXPARAM_MIP_Tolerances_AbsMIPGap                0
CPXPARAM_MIP_Tolerances_MIPGap                   0.00050000000000000001
CPXPARAM_WorkDir                                 "C:\Users\a.eicke\Documents\Locational-investment-signals\Two node models\225b\"
Tried aggregator 1 time.
QP Presolve eliminated 867 rows and 607 columns.
Aggregator did 125 substitutions.
Reduced QP has 159 rows, 149 columns, and 559 nonzeros.
Reduced QP objective Q matrix has 31 nonzeros.
Presolve time = 0.00 sec. (0.85 ticks)
Parallel mode: none, using 1 thread for barrier

***NOTE: Found 6 dense columns.

Number of nonzeros in lower triangle of A*A' = 635
Using Approximate Minimum Degree ordering
Total time for automatic ordering = 0.00 sec. (0.04 ticks)
Summary statistics for Cholesky factor:
  Rows in Factor            = 165
  Integer space required    = 346
  Total non-zeros in factor = 2098
  Total FP ops to factor    = 36440
 Itn      Primal Obj        Dual Obj  Prim Inf Upper Inf  Dual Inf          
   0   8.2571996e+03   1.1189516e+07  7.39e+02  2.46e+01  1.50e+05
   1   4.0510591e+04   3.6046163e+06  2.13e+02  7.07e+00  4.32e+04
   2   6.5739314e+04   7.4772670e+05  3.50e+01  1.35e+00  7.08e+03
   3   9.1828875e+04   2.5793523e+05  6.25e+00  2.41e-01  1.30e+03
   4   9.9395331e+04   1.1981007e+05  6.89e-01  2.66e-02  1.46e+02
   5   1.0183022e+05   1.0892139e+05  1.37e-01  5.29e-03  2.88e+01
   6   1.0286471e+05   1.0455553e+05  5.90e-03  2.27e-04  1.83e+00
   7   1.0313244e+05   1.0347201e+05  8.69e-04  3.35e-05  5.09e-01
   8   1.0319182e+05   1.0325049e+05  1.46e-04  5.61e-06  1.20e-01
   9   1.0320312e+05   1.0320479e+05  2.57e-06  9.92e-08  2.52e-03
  10   1.0320343e+05   1.0320348e+05  1.84e-08  7.09e-10  1.81e-05
  11   1.0320344e+05   1.0320344e+05  1.78e-09  1.62e-11  4.10e-07
  12   1.0320344e+05   1.0320344e+05  2.10e-06  5.72e-13  2.26e-09
Barrier time = 0.00 sec. (2.67 ticks)

Total time on 1 threads = 0.00 sec. (2.67 ticks)
QP status(1): optimal
Cplex Time: 0.00sec (det. 2.67 ticks)

Solution satisfies tolerances.

MIP Solution:       103203.435852    (730395 iterations, 16353 nodes)
Final Solve:        103203.435854    (0 iterations)

Best possible:      103254.737586
Absolute gap:           51.301733
Relative gap:            0.000497

--- Restarting execution
--- with_locational_instrument.gms(260) 2 Mb
--- Reading solution for model LOCI
--- Executing after solve: elapsed 0:01:27.238
--- with_locational_instrument.gms(290) 3 Mb
--- GDX File C:\Users\a.eicke\Documents\Locational-investment-signals\Two node models\Output/with_instrument.gdx
*** Status: Normal completion
--- Job with_locational_instrument.gms Stop 01/13/22 19:06:50 elapsed 0:01:27.238
